\ENCODING=ISO-8859-1
\Problem name: Fuel_Opt_Model

Minimize
 obj: 152.4 X_01,01_01 + 156.8 X_01,01_02 + 161.2 X_01,01_03 + 165.6 X_01,01_04
      + 170 X_01,01_05 + 174.4 X_01,01_06 + 148 X_01,01_07 + 268.68 X_01,02_01
      + 273.08 X_01,02_02 + 277.48 X_01,02_03 + 281.88 X_01,02_04
      + 286.28 X_01,02_05 + 290.68 X_01,02_06 + 264.28 X_01,02_07
      + 271.2 X_02,01_01 + 275.6 X_02,01_02 + 280 X_02,01_03 + 284.4 X_02,01_04
      + 288.8 X_02,01_05 + 293.2 X_02,01_06 + 266.8 X_02,01_07
      + 119.08 X_02,02_01 + 123.48 X_02,02_02 + 127.88 X_02,02_03
      + 132.28 X_02,02_04 + 136.68 X_02,02_05 + 141.08 X_02,02_06
      + 114.68 X_02,02_07 + 399.6 X_03,01_01 + 410.2 X_03,01_02
      + 420.8 X_03,01_03 + 431.4 X_03,01_04 + 442 X_03,01_05 + 452.6 X_03,01_06
      + 389 X_03,01_07 + 573.5 X_03,02_01 + 584.1 X_03,02_02 + 594.7 X_03,02_03
      + 605.3 X_03,02_04 + 615.9 X_03,02_05 + 626.5 X_03,02_06
      + 562.9 X_03,02_07 + 271.2 X_04,01_01 + 275.6 X_04,01_02 + 280 X_04,01_03
      + 284.4 X_04,01_04 + 288.8 X_04,01_05 + 293.2 X_04,01_06
      + 266.8 X_04,01_07 + 119.08 X_04,02_01 + 123.48 X_04,02_02
      + 127.88 X_04,02_03 + 132.28 X_04,02_04 + 136.68 X_04,02_05
      + 141.08 X_04,02_06 + 114.68 X_04,02_07 + 399.6 X_05,01_01
      + 410.2 X_05,01_02 + 420.8 X_05,01_03 + 431.4 X_05,01_04 + 442 X_05,01_05
      + 452.6 X_05,01_06 + 389 X_05,01_07 + 573.5 X_05,02_01 + 584.1 X_05,02_02
      + 594.7 X_05,02_03 + 605.3 X_05,02_04 + 615.9 X_05,02_05
      + 626.5 X_05,02_06 + 562.9 X_05,02_07 + 152.4 X_06,01_01
      + 156.8 X_06,01_02 + 161.2 X_06,01_03 + 165.6 X_06,01_04 + 170 X_06,01_05
      + 174.4 X_06,01_06 + 148 X_06,01_07 + 268.68 X_06,02_01
      + 273.08 X_06,02_02 + 277.48 X_06,02_03 + 281.88 X_06,02_04
      + 286.28 X_06,02_05 + 290.68 X_06,02_06 + 264.28 X_06,02_07
      + 654 X_07,01_01 + 664.6 X_07,01_02 + 675.2 X_07,01_03 + 685.8 X_07,01_04
      + 696.4 X_07,01_05 + 707 X_07,01_06 + 643.4 X_07,01_07 + 287.3 X_07,02_01
      + 297.9 X_07,02_02 + 308.5 X_07,02_03 + 319.1 X_07,02_04
      + 329.7 X_07,02_05 + 340.3 X_07,02_06 + 276.7 X_07,02_07
      + 367.8 X_08,01_01 + 378.4 X_08,01_02 + 389 X_08,01_03 + 399.6 X_08,01_04
      + 410.2 X_08,01_05 + 420.8 X_08,01_06 + 357.2 X_08,01_07
      + 647.7 X_08,02_01 + 658.3 X_08,02_02 + 668.9 X_08,02_03
      + 679.5 X_08,02_04 + 690.1 X_08,02_05 + 700.7 X_08,02_06
      + 637.1 X_08,02_07 + 165.6 X_09,01_01 + 170 X_09,01_02 + 174.4 X_09,01_03
      + 178.8 X_09,01_04 + 183.2 X_09,01_05 + 187.6 X_09,01_06
      + 161.2 X_09,01_07 + 237.88 X_09,02_01 + 242.28 X_09,02_02
      + 246.68 X_09,02_03 + 251.08 X_09,02_04 + 255.48 X_09,02_05
      + 259.88 X_09,02_06 + 233.48 X_09,02_07 + 271.2 X_10,01_01
      + 275.6 X_10,01_02 + 280 X_10,01_03 + 284.4 X_10,01_04 + 288.8 X_10,01_05
      + 293.2 X_10,01_06 + 266.8 X_10,01_07 + 119.08 X_10,02_01
      + 123.48 X_10,02_02 + 127.88 X_10,02_03 + 132.28 X_10,02_04
      + 136.68 X_10,02_05 + 141.08 X_10,02_06 + 114.68 X_10,02_07
Subject To
 Always_Assign_FLight_2_7: X_01,01_01 + X_01,01_02 + X_01,01_03 + X_01,01_04
                           + X_01,01_05 + X_01,01_06 + X_01,01_07 + X_01,02_01
                           + X_01,02_02 + X_01,02_03 + X_01,02_04 + X_01,02_05
                           + X_01,02_06 + X_01,02_07  = 1
 Always_Assign_FLight_2_7: X_02,01_01 + X_02,01_02 + X_02,01_03 + X_02,01_04
                           + X_02,01_05 + X_02,01_06 + X_02,01_07 + X_02,02_01
                           + X_02,02_02 + X_02,02_03 + X_02,02_04 + X_02,02_05
                           + X_02,02_06 + X_02,02_07  = 1
 Always_Assign_FLight_2_7: X_03,01_01 + X_03,01_02 + X_03,01_03 + X_03,01_04
                           + X_03,01_05 + X_03,01_06 + X_03,01_07 + X_03,02_01
                           + X_03,02_02 + X_03,02_03 + X_03,02_04 + X_03,02_05
                           + X_03,02_06 + X_03,02_07  = 1
 Always_Assign_FLight_2_7: X_04,01_01 + X_04,01_02 + X_04,01_03 + X_04,01_04
                           + X_04,01_05 + X_04,01_06 + X_04,01_07 + X_04,02_01
                           + X_04,02_02 + X_04,02_03 + X_04,02_04 + X_04,02_05
                           + X_04,02_06 + X_04,02_07  = 1
 Always_Assign_FLight_2_7: X_05,01_01 + X_05,01_02 + X_05,01_03 + X_05,01_04
                           + X_05,01_05 + X_05,01_06 + X_05,01_07 + X_05,02_01
                           + X_05,02_02 + X_05,02_03 + X_05,02_04 + X_05,02_05
                           + X_05,02_06 + X_05,02_07  = 1
 Always_Assign_FLight_2_7: X_06,01_01 + X_06,01_02 + X_06,01_03 + X_06,01_04
                           + X_06,01_05 + X_06,01_06 + X_06,01_07 + X_06,02_01
                           + X_06,02_02 + X_06,02_03 + X_06,02_04 + X_06,02_05
                           + X_06,02_06 + X_06,02_07  = 1
 Always_Assign_FLight_2_7: X_07,01_01 + X_07,01_02 + X_07,01_03 + X_07,01_04
                           + X_07,01_05 + X_07,01_06 + X_07,01_07 + X_07,02_01
                           + X_07,02_02 + X_07,02_03 + X_07,02_04 + X_07,02_05
                           + X_07,02_06 + X_07,02_07  = 1
 Always_Assign_FLight_2_7: X_08,01_01 + X_08,01_02 + X_08,01_03 + X_08,01_04
                           + X_08,01_05 + X_08,01_06 + X_08,01_07 + X_08,02_01
                           + X_08,02_02 + X_08,02_03 + X_08,02_04 + X_08,02_05
                           + X_08,02_06 + X_08,02_07  = 1
 Always_Assign_FLight_2_7: X_09,01_01 + X_09,01_02 + X_09,01_03 + X_09,01_04
                           + X_09,01_05 + X_09,01_06 + X_09,01_07 + X_09,02_01
                           + X_09,02_02 + X_09,02_03 + X_09,02_04 + X_09,02_05
                           + X_09,02_06 + X_09,02_07  = 1
 Always_Assign_FLight_2_7: X_10,01_01 + X_10,01_02 + X_10,01_03 + X_10,01_04
                           + X_10,01_05 + X_10,01_06 + X_10,01_07 + X_10,02_01
                           + X_10,02_02 + X_10,02_03 + X_10,02_04 + X_10,02_05
                           + X_10,02_06 + X_10,02_07  = 1
Bounds
      X_01,01_01 >= 0
      X_01,01_02 >= 0
      X_01,01_03 >= 0
      X_01,01_04 >= 0
      X_01,01_05 >= 0
      X_01,01_06 >= 0
      X_01,01_07 >= 0
      X_01,02_01 >= 0
      X_01,02_02 >= 0
      X_01,02_03 >= 0
      X_01,02_04 >= 0
      X_01,02_05 >= 0
      X_01,02_06 >= 0
      X_01,02_07 >= 0
      X_02,01_01 >= 0
      X_02,01_02 >= 0
      X_02,01_03 >= 0
      X_02,01_04 >= 0
      X_02,01_05 >= 0
      X_02,01_06 >= 0
      X_02,01_07 >= 0
      X_02,02_01 >= 0
      X_02,02_02 >= 0
      X_02,02_03 >= 0
      X_02,02_04 >= 0
      X_02,02_05 >= 0
      X_02,02_06 >= 0
      X_02,02_07 >= 0
      X_03,01_01 >= 0
      X_03,01_02 >= 0
      X_03,01_03 >= 0
      X_03,01_04 >= 0
      X_03,01_05 >= 0
      X_03,01_06 >= 0
      X_03,01_07 >= 0
      X_03,02_01 >= 0
      X_03,02_02 >= 0
      X_03,02_03 >= 0
      X_03,02_04 >= 0
      X_03,02_05 >= 0
      X_03,02_06 >= 0
      X_03,02_07 >= 0
      X_04,01_01 >= 0
      X_04,01_02 >= 0
      X_04,01_03 >= 0
      X_04,01_04 >= 0
      X_04,01_05 >= 0
      X_04,01_06 >= 0
      X_04,01_07 >= 0
      X_04,02_01 >= 0
      X_04,02_02 >= 0
      X_04,02_03 >= 0
      X_04,02_04 >= 0
      X_04,02_05 >= 0
      X_04,02_06 >= 0
      X_04,02_07 >= 0
      X_05,01_01 >= 0
      X_05,01_02 >= 0
      X_05,01_03 >= 0
      X_05,01_04 >= 0
      X_05,01_05 >= 0
      X_05,01_06 >= 0
      X_05,01_07 >= 0
      X_05,02_01 >= 0
      X_05,02_02 >= 0
      X_05,02_03 >= 0
      X_05,02_04 >= 0
      X_05,02_05 >= 0
      X_05,02_06 >= 0
      X_05,02_07 >= 0
      X_06,01_01 >= 0
      X_06,01_02 >= 0
      X_06,01_03 >= 0
      X_06,01_04 >= 0
      X_06,01_05 >= 0
      X_06,01_06 >= 0
      X_06,01_07 >= 0
      X_06,02_01 >= 0
      X_06,02_02 >= 0
      X_06,02_03 >= 0
      X_06,02_04 >= 0
      X_06,02_05 >= 0
      X_06,02_06 >= 0
      X_06,02_07 >= 0
      X_07,01_01 >= 0
      X_07,01_02 >= 0
      X_07,01_03 >= 0
      X_07,01_04 >= 0
      X_07,01_05 >= 0
      X_07,01_06 >= 0
      X_07,01_07 >= 0
      X_07,02_01 >= 0
      X_07,02_02 >= 0
      X_07,02_03 >= 0
      X_07,02_04 >= 0
      X_07,02_05 >= 0
      X_07,02_06 >= 0
      X_07,02_07 >= 0
      X_08,01_01 >= 0
      X_08,01_02 >= 0
      X_08,01_03 >= 0
      X_08,01_04 >= 0
      X_08,01_05 >= 0
      X_08,01_06 >= 0
      X_08,01_07 >= 0
      X_08,02_01 >= 0
      X_08,02_02 >= 0
      X_08,02_03 >= 0
      X_08,02_04 >= 0
      X_08,02_05 >= 0
      X_08,02_06 >= 0
      X_08,02_07 >= 0
      X_09,01_01 >= 0
      X_09,01_02 >= 0
      X_09,01_03 >= 0
      X_09,01_04 >= 0
      X_09,01_05 >= 0
      X_09,01_06 >= 0
      X_09,01_07 >= 0
      X_09,02_01 >= 0
      X_09,02_02 >= 0
      X_09,02_03 >= 0
      X_09,02_04 >= 0
      X_09,02_05 >= 0
      X_09,02_06 >= 0
      X_09,02_07 >= 0
      X_10,01_01 >= 0
      X_10,01_02 >= 0
      X_10,01_03 >= 0
      X_10,01_04 >= 0
      X_10,01_05 >= 0
      X_10,01_06 >= 0
      X_10,01_07 >= 0
      X_10,02_01 >= 0
      X_10,02_02 >= 0
      X_10,02_03 >= 0
      X_10,02_04 >= 0
      X_10,02_05 >= 0
      X_10,02_06 >= 0
      X_10,02_07 >= 0
Generals
 X_01,01_01  X_01,01_02  X_01,01_03  X_01,01_04  X_01,01_05  X_01,01_06 
 X_01,01_07  X_01,02_01  X_01,02_02  X_01,02_03  X_01,02_04  X_01,02_05 
 X_01,02_06  X_01,02_07  X_02,01_01  X_02,01_02  X_02,01_03  X_02,01_04 
 X_02,01_05  X_02,01_06  X_02,01_07  X_02,02_01  X_02,02_02  X_02,02_03 
 X_02,02_04  X_02,02_05  X_02,02_06  X_02,02_07  X_03,01_01  X_03,01_02 
 X_03,01_03  X_03,01_04  X_03,01_05  X_03,01_06  X_03,01_07  X_03,02_01 
 X_03,02_02  X_03,02_03  X_03,02_04  X_03,02_05  X_03,02_06  X_03,02_07 
 X_04,01_01  X_04,01_02  X_04,01_03  X_04,01_04  X_04,01_05  X_04,01_06 
 X_04,01_07  X_04,02_01  X_04,02_02  X_04,02_03  X_04,02_04  X_04,02_05 
 X_04,02_06  X_04,02_07  X_05,01_01  X_05,01_02  X_05,01_03  X_05,01_04 
 X_05,01_05  X_05,01_06  X_05,01_07  X_05,02_01  X_05,02_02  X_05,02_03 
 X_05,02_04  X_05,02_05  X_05,02_06  X_05,02_07  X_06,01_01  X_06,01_02 
 X_06,01_03  X_06,01_04  X_06,01_05  X_06,01_06  X_06,01_07  X_06,02_01 
 X_06,02_02  X_06,02_03  X_06,02_04  X_06,02_05  X_06,02_06  X_06,02_07 
 X_07,01_01  X_07,01_02  X_07,01_03  X_07,01_04  X_07,01_05  X_07,01_06 
 X_07,01_07  X_07,02_01  X_07,02_02  X_07,02_03  X_07,02_04  X_07,02_05 
 X_07,02_06  X_07,02_07  X_08,01_01  X_08,01_02  X_08,01_03  X_08,01_04 
 X_08,01_05  X_08,01_06  X_08,01_07  X_08,02_01  X_08,02_02  X_08,02_03 
 X_08,02_04  X_08,02_05  X_08,02_06  X_08,02_07  X_09,01_01  X_09,01_02 
 X_09,01_03  X_09,01_04  X_09,01_05  X_09,01_06  X_09,01_07  X_09,02_01 
 X_09,02_02  X_09,02_03  X_09,02_04  X_09,02_05  X_09,02_06  X_09,02_07 
 X_10,01_01  X_10,01_02  X_10,01_03  X_10,01_04  X_10,01_05  X_10,01_06 
 X_10,01_07  X_10,02_01  X_10,02_02  X_10,02_03  X_10,02_04  X_10,02_05 
 X_10,02_06  X_10,02_07 
End
